
  22    4
  10   10   10   10

   0   0   0   0   0   8 2 4 5 6 7 8 15 21 
   8  10  10  10  10   2 13 3 
   7  10  10  10  10   5 19 17 11 10 9 
   9  10  10  10  10   5 20 19 17 11 10 
   2  10  10  10  10   5 17 13 11 10 9 
   7  10  10  10  10   4 18 14 12 10 
   8  10  10  10  10   4 17 12 11 10 
   7  10  10  10  10   4 19 18 17 10 
   2  10  10  10  10   2 18 16 
   9  10  10  10  10   1 16 
   1  10  10  10  10   1 18 
   7  10  10  10  10   1 19 
   9  10  10  10  10   1 16 
   1  10  10  10  10   1 17 
  10  10  10  10  10   1 17 
   4  10  10  10  10   1 22
   3  10  10  10  10   1 22
   2  10  10  10  10   1 22
   8  10  10  10  10   1 22
   6  10  10  10  10   1 22
   6  10  10  10  10   1 22
   0   0   0   0   0   0 
